rehearsal = [[1,1,1,1,1,1,1,1,0,0], [0,0,0,1,1,1,1,1,0,1], [0,1,1,1,1,1,1,1,1,1], [0,0,0,0,1,1,1,1,1,1], [1,1,1,0,1,1,1,0,1,1], [1,1,0,0,1,1,1,0,0,1], [0,0,0,0,1,1,1,1,1,1], [1,1,1,0,0,1,1,1,1,1], [1,0,1,1,0,0,0,1,1,1], [1,1,1,1,1,0,1,1,1,1], [1,0,1,0,0,1,0,1,1,1], [1,1,1,1,1,0,0,1,1,1], [0,1,0,1,0,1,1,1,1,0], [0,0,0,1,1,0,1,0,1,0], [0,1,1,1,1,1,1,1,0,1], [1,1,0,1,0,1,0,1,1,1], [0,1,0,1,1,1,1,0,1,1], [1,1,1,1,1,1,0,1,1,1], [0,1,1,0,0,0,0,1,0,1], [1,1,1,0,1,1,1,1,0,1], [1,1,0,1,1,1,0,1,0,1], [1,1,1,1,1,0,1,1,0,1], [0,1,1,1,1,1,1,1,1,1], [1,0,0,1,1,1,1,0,0,1], [1,1,1,1,0,1,1,0,1,1]];
permutations = [3,2,8,10,1,6,7,5,4,9];